<number of tasks>
32

<cycle time>
1572

<task times>
1 458
2 276
3 520
4 1400
5 352
6 196
7 214
8 456
9 646
10 512
11 408
12 262
13 544
14 202
15 458
16 694
17 616
18 678
19 328
20 324
21 100
22 352
23 544
24 500
25 382
26 858
27 388
28 352
29 428
30 238
31 258
32 196

<precedence relations>
1,5
2,6
3,9
4,15
5,6
6,7
6,8
6,9
7,21
8,21
9,10
9,11
10,16
11,12
12,13
13,14
13,15
14,16
14,17
15,17
16,18
17,19
18,21
19,20
20,21
21,22
21,23
21,24
22,25
23,32
24,32
25,26
26,27
27,28
28,29
29,30
30,31
31,32

<setup times forward>
1,2:123
1,4:89
2,1:123
2,3:123
2,4:34
2,5:123
3,2:123
3,4:89
3,6:123
3,7:139
3,8:93
3,9:123
4,1:89
4,2:34
4,3:89
4,5:89
4,6:34
4,7:50
4,8:4
4,9:34
4,10:31
4,11:34
4,12:31
4,13:31
4,14:21
4,15:21
4,16:21
4,18:50
5,2:123
5,4:89
5,6:123
6,3:123
6,4:34
6,7:16
6,8:30
7,3:139
7,4:50
7,8:46
7,9:16
7,10:81
7,11:16
7,12:81
7,13:81
7,14:71
7,15:71
7,16:71
7,19:46
7,20:46
7,21:46
8,3:93
8,4:4
8,7:46
8,9:30
8,10:35
8,11:30
8,12:35
8,13:35
8,14:25
8,15:25
8,16:25
8,17:46
8,18:46
9,4:34
9,7:16
9,8:30
9,10:65
10,4:31
10,7:81
10,8:35
10,11:65
10,14:10
10,15:10
10,16:10
10,17:81
10,19:35
10,20:35
11,4:34
11,7:16
11,8:30
11,10:65
11,12:65
12,4:31
12,7:81
12,8:35
13,4:31
13,7:81
13,8:35
13,14:10
13,15:10
14,4:21
14,7:71
14,8:25
14,10:10
14,17:71
15,7:71
15,8:25
15,10:10
15,17:71
15,18:71
16,4:21
16,7:71
16,8:25
16,17:71
16,18:71
16,19:25
16,20:25
17,8:46
17,10:81
17,16:71
17,19:46
18,4:50
18,8:46
18,15:71
18,19:46
18,20:46
18,21:46
19,7:46
19,10:35
19,16:25
19,18:46
20,7:46
20,10:35
20,16:25
20,18:46
21,23:74
21,24:74
22,23:74
22,24:74
22,25:74
23,22:74
23,26:125
23,27:125
23,28:45
23,29:45
23,30:45
23,31:45
23,32:45
24,22:74
24,26:125
24,27:125
24,28:45
24,29:45
24,30:45
24,31:45
24,32:45
25,26:125
26,23:125
26,24:125
27,23:125
27,24:125
27,28:80
28,23:45
28,24:45
29,23:45
29,24:45
30,23:45
30,24:45
31,23:45
31,24:45

<setup times backward>
1,1:12
1,2:135
1,3:12
1,4:101
2,2:12
3,1:12
3,2:135
3,3:12
3,4:101
3,5:12
3,6:135
3,7:151
3,8:105
4,2:46
4,4:12
4,6:46
4,7:62
4,8:16
4,9:46
4,11:46
4,18:62
5,1:12
5,2:135
5,3:12
5,4:101
5,5:12
6,2:12
6,6:12
7,7:12
7,17:12
7,18:12
8,2:42
8,4:8
8,6:42
8,7:58
8,8:12
8,9:42
8,11:42
8,17:58
8,18:58
8,19:12
8,20:12
9,2:12
9,6:12
9,7:28
9,9:12
10,2:77
10,4:43
10,6:77
10,7:93
10,8:47
10,9:77
10,10:12
10,11:77
10,12:12
10,13:12
10,14:22
10,15:22
10,17:93
10,19:47
10,20:47
11,2:12
11,6:12
11,7:28
11,9:12
11,11:12
12,2:77
12,4:43
12,6:77
12,7:93
12,8:47
12,9:77
12,10:12
12,11:77
12,12:12
13,2:77
13,4:43
13,6:77
13,7:93
13,8:47
13,9:77
13,10:12
13,11:77
13,12:12
13,13:12
14,2:67
14,4:33
14,6:67
14,7:83
14,8:37
14,9:67
14,10:2
14,11:67
14,12:2
14,13:2
14,14:12
14,15:12
15,2:67
15,4:33
15,6:67
15,7:83
15,8:37
15,9:67
15,10:2
15,11:67
15,12:2
15,13:2
15,14:12
15,15:12
15,16:12
15,18:83
16,2:67
16,4:33
16,6:67
16,7:83
16,8:37
16,9:67
16,10:2
16,11:67
16,12:2
16,13:2
16,14:12
16,15:12
16,16:12
16,17:83
16,19:37
16,20:37
17,7:12
17,17:12
17,18:12
18,7:12
18,17:12
18,18:12
19,2:42
19,4:8
19,6:42
19,7:58
19,8:12
19,9:42
19,11:42
19,17:58
19,18:58
19,19:12
20,2:42
20,4:8
20,6:42
20,7:58
20,8:12
20,9:42
20,11:42
20,17:58
20,18:58
20,19:12
20,20:12
21,2:42
21,4:8
21,6:42
21,7:58
21,8:12
21,9:42
21,11:42
21,17:58
21,18:58
21,19:12
21,20:12
21,21:12
22,2:42
22,4:8
22,6:42
22,7:58
22,8:12
22,9:42
22,11:42
22,17:58
22,18:58
22,19:12
22,20:12
22,21:12
22,22:12
22,23:86
22,24:86
23,23:12
23,24:12
23,25:12
24,23:12
24,24:12
24,25:12
25,23:12
25,24:12
25,25:12
26,2:93
26,4:59
26,6:93
26,7:109
26,8:63
26,9:93
26,10:28
26,11:93
26,12:28
26,13:28
26,14:38
26,15:38
26,16:38
26,17:109
26,18:109
26,19:63
26,20:63
26,21:63
26,22:63
26,23:137
26,24:137
26,25:137
26,26:12
27,2:93
27,4:59
27,6:93
27,7:109
27,8:63
27,9:93
27,10:28
27,11:93
27,12:28
27,13:28
27,14:38
27,15:38
27,16:38
27,17:109
27,18:109
27,19:63
27,20:63
27,21:63
27,22:63
27,23:137
27,24:137
27,25:137
27,26:12
27,27:12
28,2:13
28,6:13
28,7:29
28,9:13
28,11:13
28,17:29
28,18:29
28,23:57
28,24:57
28,25:57
28,28:12
29,2:13
29,6:13
29,7:29
29,9:13
29,11:13
29,17:29
29,18:29
29,23:57
29,24:57
29,25:57
29,28:12
29,29:12
30,2:13
30,6:13
30,7:29
30,9:13
30,11:13
30,17:29
30,18:29
30,23:57
30,24:57
30,25:57
30,28:12
30,29:12
30,30:12
31,2:13
31,6:13
31,7:29
31,9:13
31,11:13
31,17:29
31,18:29
31,23:57
31,24:57
31,25:57
31,28:12
31,29:12
31,30:12
31,31:12
32,2:13
32,6:13
32,7:29
32,9:13
32,11:13
32,17:29
32,18:29
32,23:57
32,24:57
32,25:57
32,28:12
32,29:12
32,30:12
32,31:12
32,32:12

<end>

<optimal SALBP-1 value>
10


<rand seed>
467321153

